log             log.MFI_hole_radius_10_ratio_75 append
units           real
atom_style      full
boundary        p p p

pair_style      lj/cut 12.500
bond_style      harmonic
angle_style     hybrid cosine/periodic fourier
dihedral_style  harmonic

special_bonds   lj/coul 0.0 0.0 1.0
pair_modify     tail yes mix arithmetic
dielectric      1.0
box tilt        large
read_data       data.MFI_hole_radius_10_ratio_75

#### Atom Groupings ####
group           fram     id   1:2970
#### END Atom Groupings ####

