log             log.MFI_hole_radius_20_ratio_50 append
units           real
atom_style      full
boundary        p p p

pair_style      lj/cut 12.500
bond_style      harmonic
angle_style     hybrid cosine/periodic fourier
dihedral_style  harmonic

pair_modify     tail yes mix arithmetic
dielectric      1.0
special_bonds   lj/coul 0.0 0.0 1.0
box tilt        large
read_data       data.MFI_hole_radius_20_ratio_50

#### Atom Groupings ####
group           fram     id   1:5454
#### END Atom Groupings ####

