 H  O Si  O 
 1.0000000000000000
    40.1799999999999997    0.0000000000000000    0.0000000000000000
     0.0000000000000000   39.4759999999999991    0.0000000000000000
     0.0000000000000000    0.0000000000000000   26.2839999999999989
 H   O   Si  O  
  62  62 692 1354
Cartesian
 12.8961242479123683 18.3828004539717540  3.4168386275623308
 15.1388690454525516 17.5715950777516419 11.9622260141230026
 18.2083067478012559 13.3147595877415768 12.1309268138905342
 19.9348403474644833 13.6609108032086759 10.6683977353563026
 17.7747089910764267 14.0279070431762136  9.9923077384926469
 15.6199970878643608 17.3335957844859934  9.7663239970106162
 16.3810638159489663 15.3092793643480807  6.5615899534611053
 14.6508514053269678 16.7568252970706872  7.2554455461590397
 13.2382096435340681 18.4472433202132109 15.4461100582659707
 14.6810688327716772 17.3712811205440936 24.0121993981285051
 18.0820650765146915 12.8838282423847250 24.2817296227180215
 19.9255611261188932 13.2974744660397040 22.6068391420359625
 17.6635352680369877 13.7537245363273168 21.8750880116663033
 15.3621232036757309 17.1948860193243682 21.5127800528822526
 16.4340843492198552 15.3725894668027365 18.2820094382368623
 14.6512129819548864 16.7570234757152967 19.0211039748837081
 18.3355481458712113 25.9708047721645272 11.7133882137363159
 14.7800225094161242 20.5383061198923897  6.9643183627803120
 13.5474712561327379 21.0951740584856537 10.0527426011498857
 13.2631393652747445 22.8155709730913685  3.7480984350664643
 14.9415392675494569 24.0348516436953190 12.4794064065146202
 16.6391516370741961 25.4223862397388309 13.1385727821071185
 16.2192432090295817 24.2310726158194392  4.8696613705115830
 18.2183156404746249 26.3872809025120851 23.8007553044567466
 14.8199462151335339 20.5322889218776936 18.6339584110608598
 13.2646704729532363 21.1538379026468917 21.9895860133025067
 13.5510740499383608 22.6857690809654962 15.7647306222000694
 14.5830128741137930 24.3340740332596894 24.6739388020625441
 16.3813357869375125 25.8470716262798383 25.4158776992755193
 18.6818623780110542 26.0140421616287334 13.9674981664973341
 16.3929613369189582 24.0294251847248361 16.6702267197004161
 21.9616843595253748 13.0887190974879104  2.4832446955432488
 25.3600537848664693 18.9437110781223055  7.6500415889391391
 26.9153295270467616 18.3221620973531110  4.2944139866974913
 26.6289259500616424 16.7902309190345029 10.5192693777999295
 25.5969871258862121 15.1419259667403097  1.6100611979374553
 23.7986642130624872 13.6289283737201572  0.8681223007244766
 21.4981376219889455 13.4619578383712568 12.3165018335026630
 23.7870386630810415 15.4465748152751665  9.6137732802995810
 21.8444518541287884 13.5051952278354683 14.5706117862636813
 25.3999774905838827 18.9376938801076093 19.3196816372196842
 26.6325287438672618 18.3808259415143489 16.2312573988501079
 26.9168606347252570 16.6604290269086306 22.5359015649335355
 25.2384607324505481 15.4411483563046819 13.8045935934853770
 23.5408483629258036 14.0536137602611628 13.1454272178928786
 23.9607567909704180 15.2449273841805617 21.4143386294884124
 26.9417903564659298 21.0287566797867882 10.8378899417340264
 25.4989311672283243 22.1047188794559055  2.2718006018714956
 22.0979349234853082 26.5921717576152652  2.0022703772819801
 20.2544388738811101 26.1785255339602898  3.6771608579640320
 22.5164647319630120 25.7222754636726734  4.4089119883336929
 24.8178767963242670 22.2811139806756273  4.7712199471177437
 23.7459156507801445 24.1034105331972626  8.0019905617631366
 25.5287870180451151 22.7189765242847024  7.2628960251162908
 27.2838757520876314 21.0931995460282415 22.8671613724376677
 25.0411309545474516 21.9044049222483572 14.3217739858769946
 21.9716932521987438 26.1612404122584152 14.1530731861094630
 20.2451596525355200 25.8150891967913196 15.6156022646436927
 22.4052910089235731 25.4480929568237748 16.2916922615073467
 24.5600029121356371 22.1424042155140022 16.5176760029893792
 23.7989361840510334 24.1667206356519202 19.7224100465388936
 25.5291485946730354 22.7191747029293154 19.0285544538409574
 12.3051250000000003 18.2714666000000001  2.6178863999999988
 14.2438100000000016 17.1799552000000020 11.7489480000000004
 17.9303249999999998 12.3658569999999965 11.9815613999999986
 19.9111989999999999 12.7349575999999995 10.2915001999999998
 17.4401289999999989 13.2027481999999985  9.5371494000000006
 14.8866899999999998 16.9391515999999953  9.2125419999999991
 15.9574870000000004 14.8034999999999997  5.8100781999999995
 14.0147840000000006 16.4081994000000009  6.5670573999999995
 12.3051250000000003 18.2714666000000001 15.7598863999999992
 14.2438100000000016 17.1799552000000020 24.8909480000000016
 17.9303249999999998 12.3658569999999965 25.1235613999999998
 19.9111989999999999 12.7349575999999995 23.4335001999999974
 17.4401289999999989 13.2027481999999985 22.6791494000000000
 14.8866899999999998 16.9391515999999953 22.3545419999999986
 15.9574870000000004 14.8034999999999997 18.9520781999999990
 14.0147840000000006 16.4081994000000009 19.7090573999999989
 18.0709549999999979 26.9107891999999929 11.4979358000000005
 14.1313060000000004 20.6360789999999987  6.2095949999999993
 12.6587090000000000 21.2795377999999999  9.6330859999999987
 12.6948710000000009 23.0717482000000018  2.9661494000000017
 14.1775129999999994 24.6724999999999994 12.3810781999999993
 16.1202159999999992 26.2771993999999971 13.1380573999999992
 15.8389559999999996 24.6724999999999994  4.0569353999999977
 18.0709549999999979 26.9107891999999929 24.6399357999999999
 14.1313060000000004 20.6360789999999987 19.3515949999999997
 12.6587090000000000 21.2795377999999999 22.7750859999999982
 12.6948710000000009 23.0717482000000018 16.1081494000000021
 14.1775129999999994 24.6724999999999994 25.5230782000000005
 16.1202159999999992 26.2771993999999971 26.2800573999999969
 18.4647189999999988 26.9818459999999938 14.0947949999999995
 15.8389559999999996 24.6724999999999994 17.1989353999999963
 22.1090450000000018 12.5652108000000009  1.6440641999999970
 26.0486940000000047 18.8399210000000004  6.9324049999999993
 27.5212909999999980 18.1964621999999991  3.5089139999999985
 27.4851290000000006 16.4042517999999973 10.1758505999999986
 26.0024870000000057 14.8034999999999997  0.7609218000000000
 24.0597840000000005 13.1988005999999967  0.0039426000000000
 21.7152810000000009 12.4941539999999982 12.1892049999999994
 24.3410440000000001 14.8034999999999997  9.0850646000000008
 22.1090450000000018 12.5652108000000009 14.7860641999999967
 26.0486940000000047 18.8399210000000004 20.0744049999999987
 27.5212909999999980 18.1964621999999991 16.6509139999999967
 27.4851290000000006 16.4042517999999973 23.3178505999999999
 26.0024870000000057 14.8034999999999997 13.9029217999999997
 24.0597840000000005 13.1988005999999967 13.1459425999999997
 24.3410440000000001 14.8034999999999997 22.2270645999999985
 27.8748749999999994 21.2045333999999954 10.5241135999999997
 25.9361899999999999 22.2960447999999971  1.3930520000000000
 22.2496749999999999 27.1101429999999937  1.1604386000000000
 20.2688010000000034 26.7410423999999942  2.8504997999999984
 22.7398710000000008 26.2732517999999899  3.6048505999999967
 25.2933099999999982 22.5368483999999967  3.9294579999999990
 24.2225129999999993 24.6724999999999994  7.3319217999999990
 26.1652160000000009 23.0678005999999982  6.5749425999999991
 27.8748749999999994 21.2045333999999954 23.6661135999999992
 25.9361899999999999 22.2960447999999971 14.5350520000000003
 22.2496749999999999 27.1101429999999937 14.3024386000000003
 20.2688010000000034 26.7410423999999942 15.9924997999999974
 22.7398710000000008 26.2732517999999899 16.7468505999999948
 25.2933099999999982 22.5368483999999967 17.0714579999999998
 24.2225129999999993 24.6724999999999994 20.4739217999999994
 26.1652160000000009 23.0678005999999982 19.7169425999999994
  8.4659259999999996  1.4033717999999999  9.0653515999999996
  1.5790740000000001 11.2723717999999984  2.4943515999999994
  8.4659259999999996  8.4656281999999994  9.0653515999999996
  1.5790740000000001 18.3346282000000009  2.4943515999999994
 11.6240740000000002 18.3346282000000009  4.0766483999999998
 18.5109260000000013  8.4656281999999994 10.6476483999999996
 11.6240740000000002 11.2723717999999984  4.0766483999999998
 18.5109260000000013  1.4033717999999999 10.6476483999999996
  6.5473310000000007  0.6631967999999999 11.1707000000000001
  3.4976689999999997 10.5321967999999995  4.5997000000000012
  6.5473310000000007  9.2058032000000001 11.1707000000000001
  3.4976689999999997 19.0748032000000016  4.5997000000000012
 16.5923310000000015  9.2058032000000001  8.5422999999999991
 13.5426689999999983 10.5321967999999995  1.9712999999999987
 16.5923310000000015  0.6631967999999999  8.5422999999999991
  5.6091280000000001  1.0579567999999999  0.8608010000000000
  4.4358719999999998 10.9269567999999992  7.4318010000000001
  5.6091280000000001  8.8110432000000003  0.8608010000000000
  4.4358719999999998 18.6800431999999965  7.4318010000000001
 15.6541280000000000  8.8110432000000003  5.7101989999999994
 14.4808719999999997 10.9269567999999992 12.2811989999999991
 15.6541280000000000  1.0579567999999999  5.7101989999999994
  2.5032139999999998  1.0145332000000000  0.6321302000000000
  7.5417860000000001 10.8835332000000005  7.2031302000000004
  2.5032139999999998  8.8544667999999991  0.6321302000000000
  7.5417860000000001 18.7234668000000006  7.2031302000000004
 12.5482140000000015  8.8544667999999991  5.9388698000000000
 17.5867860000000000 10.8835332000000005 12.5098697999999988
 12.5482140000000015  1.0145332000000000  5.9388698000000000
  1.4484889999999999  0.7105680000000000 10.8198086000000000
  8.5965109999999996 10.5795680000000001  4.2488086000000020
  1.4484889999999999  9.1584319999999995 10.8198086000000000
  8.5965109999999996 19.0274319999999975  4.2488086000000020
 11.4934890000000003  9.1584319999999995  8.8931913999999992
 18.6415109999999977 10.5795680000000001  2.3221913999999995
 11.4934890000000003  0.7105680000000000  8.8931913999999992
  4.0863059999999995  1.3560006000000000  9.4582973999999993
  5.9586940000000004 11.2250005999999996  2.8872974000000000
  4.0863059999999995  8.5129993999999982  9.4582973999999993
  5.9586940000000004 18.3819994000000015  2.8872974000000000
 14.1313060000000004  8.5129993999999982 10.2547025999999999
 16.0036939999999994 11.2250005999999996  3.6837025999999997
 14.1313060000000004  1.3560006000000000 10.2547025999999999
  8.4277549999999994 16.3312212000000017  8.9431309999999993
  1.6172450000000003  6.4622212000000028  2.3721309999999982
  8.4277549999999994 13.2757787999999977  8.9431309999999993
  1.6172450000000003  3.4067787999999974  2.3721309999999982
 11.6622450000000004  3.4067787999999974  4.1988690000000002
 11.6622450000000004  6.4622212000000028  4.1988690000000002
  6.3323679999999998 17.3003569999999947 10.9880261999999984
  3.7126320000000002  7.4313570000000011  4.4170262000000005
  6.3323679999999998 12.3066430000000011 10.9880261999999984
  3.7126320000000002  2.4376430000000009  4.4170262000000005
 13.7576320000000010  2.4376430000000009  2.1539738000000006
 16.3773679999999970 12.3066430000000011  8.7249738000000008
 13.7576320000000010  7.4313570000000011  2.1539738000000006
  5.4905969999999993 16.3391163999999982  0.5283084000000000
  4.5544030000000006  6.4701163999999975  7.0993084000000000
  5.4905969999999993 13.2678835999999958  0.5283084000000000
  4.5544030000000006  3.3988836000000004  7.0993084000000000
 14.5994030000000006  3.3988836000000004 12.6136915999999992
 15.5355969999999992 13.2678835999999958  6.0426915999999995
 14.5994030000000006  6.4701163999999975 12.6136915999999992
  2.3806650000000000 16.3410902000000000  0.2404986000000000
  7.6643350000000003  6.4720902000000002  6.8114985999999993
  2.3806650000000000 13.2659098000000011  0.2404986000000000
  7.6643350000000003  3.3969098000000000  6.8114985999999993
 17.7093349999999994  3.3969098000000000 12.9015013999999990
 12.4256650000000004 13.2659098000000011  6.3305014000000002
 17.7093349999999994  6.4720902000000002 12.9015013999999990
 12.4256650000000004 16.3410902000000000  6.3305014000000002
  1.3199129999999999 17.3575971999999972 10.6279353999999984
  8.7250870000000003  7.4885971999999992  4.0569353999999995
  1.3199129999999999 12.2494028000000004 10.6279353999999984
  8.7250870000000003  2.3804028000000028  4.0569353999999995
 18.7700870000000002  2.3804028000000028  2.5140646000000015
 11.3649129999999996 12.2494028000000004  9.0850646000000008
 18.7700870000000002  7.4885971999999992  2.5140646000000015
 11.3649129999999996 17.3575971999999972  9.0850646000000008
  3.9115230000000003 16.3588543999999985  9.3203063999999998
  6.1334770000000001  6.4898543999999996  2.7493064000000005
  3.9115230000000003 13.2481456000000009  9.3203063999999998
  6.1334770000000001  3.3791455999999997  2.7493064000000005
 16.1784770000000009  3.3791455999999997  3.8216935999999992
 13.9565229999999989 13.2481456000000009 10.3926935999999994
 16.1784770000000009  6.4898543999999996  3.8216935999999992
 13.9565229999999989 16.3588543999999985 10.3926935999999994
  8.4659259999999996  1.4033717999999999 22.2073515999999991
  1.5790740000000001 11.2723717999999984 15.6363515999999994
  8.4659259999999996  8.4656281999999994 22.2073515999999991
  1.5790740000000001 18.3346282000000009 15.6363515999999994
 11.6240740000000002 18.3346282000000009 17.2186483999999993
 18.5109260000000013  8.4656281999999994 23.7896483999999973
 11.6240740000000002 11.2723717999999984 17.2186483999999993
 18.5109260000000013  1.4033717999999999 23.7896483999999973
  6.5473310000000007  0.6631967999999999 24.3126999999999995
  3.4976689999999997 10.5321967999999995 17.7417000000000016
  6.5473310000000007  9.2058032000000001 24.3126999999999995
  3.4976689999999997 19.0748032000000016 17.7417000000000016
 16.5923310000000015  9.2058032000000001 21.6843000000000004
 13.5426689999999983 10.5321967999999995 15.1132999999999988
 16.5923310000000015  0.6631967999999999 21.6843000000000004
  5.6091280000000001  1.0579567999999999 14.0028010000000016
  4.4358719999999998 10.9269567999999992 20.5738009999999996
  5.6091280000000001  8.8110432000000003 14.0028010000000016
  4.4358719999999998 18.6800431999999965 20.5738009999999996
 15.6541280000000000  8.8110432000000003 18.8521989999999988
 14.4808719999999997 10.9269567999999992 25.4231989999999968
 15.6541280000000000  1.0579567999999999 18.8521989999999988
  2.5032139999999998  1.0145332000000000 13.7741302000000001
  7.5417860000000001 10.8835332000000005 20.3451301999999998
  2.5032139999999998  8.8544667999999991 13.7741302000000001
  7.5417860000000001 18.7234668000000006 20.3451301999999998
 12.5482140000000015  8.8544667999999991 19.0808697999999985
 17.5867860000000000 10.8835332000000005 25.6518698000000001
 12.5482140000000015  1.0145332000000000 19.0808697999999985
  1.4484889999999999  0.7105680000000000 23.9618085999999977
  8.5965109999999996 10.5795680000000001 17.3908085999999997
  1.4484889999999999  9.1584319999999995 23.9618085999999977
  8.5965109999999996 19.0274319999999975 17.3908085999999997
 11.4934890000000003  9.1584319999999995 22.0351913999999987
 18.6415109999999977 10.5795680000000001 15.4641914000000007
 11.4934890000000003  0.7105680000000000 22.0351913999999987
  4.0863059999999995  1.3560006000000000 22.6002973999999988
  5.9586940000000004 11.2250005999999996 16.0292974000000008
  4.0863059999999995  8.5129993999999982 22.6002973999999988
  5.9586940000000004 18.3819994000000015 16.0292974000000008
 14.1313060000000004  8.5129993999999982 23.3967025999999976
 16.0036939999999994 11.2250005999999996 16.8257025999999996
 14.1313060000000004  1.3560006000000000 23.3967025999999976
  8.4277549999999994 16.3312212000000017 22.0851309999999970
  1.6172450000000003  6.4622212000000028 15.5141309999999972
  8.4277549999999994 13.2757787999999977 22.0851309999999970
  1.6172450000000003  3.4067787999999974 15.5141309999999972
 11.6622450000000004  3.4067787999999974 17.3408689999999979
 11.6622450000000004  6.4622212000000028 17.3408689999999979
  6.3323679999999998 17.3003569999999947 24.1300261999999961
  3.7126320000000002  7.4313570000000011 17.5590261999999981
  6.3323679999999998 12.3066430000000011 24.1300261999999961
  3.7126320000000002  2.4376430000000009 17.5590261999999981
 13.7576320000000010  2.4376430000000009 15.2959738000000023
 16.3773679999999970 12.3066430000000011 21.8669738000000002
 13.7576320000000010  7.4313570000000011 15.2959738000000023
  5.4905969999999993 16.3391163999999982 13.6703083999999997
  4.5544030000000006  6.4701163999999975 20.2413084000000012
  5.4905969999999993 13.2678835999999958 13.6703083999999997
  4.5544030000000006  3.3988836000000004 20.2413084000000012
 14.5994030000000006  3.3988836000000004 25.7556915999999987
 15.5355969999999992 13.2678835999999958 19.1846916000000007
 14.5994030000000006  6.4701163999999975 25.7556915999999987
  2.3806650000000000 16.3410902000000000 13.3824985999999999
  7.6643350000000003  6.4720902000000002 19.9534985999999996
  2.3806650000000000 13.2659098000000011 13.3824985999999999
  7.6643350000000003  3.3969098000000000 19.9534985999999996
 17.7093349999999994  3.3969098000000000 26.0435013999999967
 12.4256650000000004 13.2659098000000011 19.4725013999999987
 17.7093349999999994  6.4720902000000002 26.0435013999999967
 12.4256650000000004 16.3410902000000000 19.4725013999999987
  1.3199129999999999 17.3575971999999972 23.7699353999999978
  8.7250870000000003  7.4885971999999992 17.1989353999999999
  1.3199129999999999 12.2494028000000004 23.7699353999999978
  8.7250870000000003  2.3804028000000028 17.1989353999999999
 18.7700870000000002  2.3804028000000028 15.6560646000000006
 11.3649129999999996 12.2494028000000004 22.2270645999999985
 18.7700870000000002  7.4885971999999992 15.6560646000000006
 11.3649129999999996 17.3575971999999972 22.2270645999999985
  3.9115230000000003 16.3588543999999985 22.4623063999999992
  6.1334770000000001  6.4898543999999996 15.8913063999999995
  3.9115230000000003 13.2481456000000009 22.4623063999999992
  6.1334770000000001  3.3791455999999997 15.8913063999999995
 16.1784770000000009  3.3791455999999997 16.9636935999999992
 13.9565229999999989 13.2481456000000009 23.5346935999999971
 16.1784770000000009  6.4898543999999996 16.9636935999999992
 13.9565229999999989 16.3588543999999985 23.5346935999999971
  8.4659259999999996 21.1413717999999982  9.0653515999999996
  1.5790740000000001 31.0103717999999944  2.4943515999999994
  8.4659259999999996 28.2036281999999972  9.0653515999999996
  1.5790740000000001 38.0726281999999969  2.4943515999999994
 11.6240740000000002 38.0726281999999969  4.0766483999999998
 18.5109260000000013 28.2036281999999972 10.6476483999999996
 11.6240740000000002 31.0103717999999944  4.0766483999999998
  6.5473310000000007 20.4011968000000010 11.1707000000000001
  3.4976689999999997 30.2701968000000008  4.5997000000000012
  6.5473310000000007 28.9438031999999978 11.1707000000000001
  3.4976689999999997 38.8128032000000047  4.5997000000000012
 13.5426689999999983 38.8128032000000047  1.9712999999999987
 16.5923310000000015 28.9438031999999978  8.5422999999999991
 13.5426689999999983 30.2701968000000008  1.9712999999999987
  5.6091280000000001 20.7959567999999955  0.8608010000000000
  4.4358719999999998 30.6649567999999952  7.4318010000000001
  5.6091280000000001 28.5490431999999963  0.8608010000000000
  4.4358719999999998 38.4180431999999996  7.4318010000000001
 14.4808719999999997 38.4180431999999996 12.2811989999999991
 15.6541280000000000 28.5490431999999963  5.7101989999999994
 14.4808719999999997 30.6649567999999952 12.2811989999999991
  2.5032139999999998 20.7525331999999985  0.6321302000000000
  7.5417860000000001 30.6215332000000018  7.2031302000000004
  2.5032139999999998 28.5924667999999969  0.6321302000000000
  7.5417860000000001 38.4614667999999895  7.2031302000000004
 17.5867860000000000 38.4614667999999895 12.5098697999999988
 12.5482140000000015 28.5924667999999969  5.9388698000000000
 17.5867860000000000 30.6215332000000018 12.5098697999999988
 12.5482140000000015 20.7525331999999985  5.9388698000000000
  1.4484889999999999 20.4485679999999945 10.8198086000000000
  8.5965109999999996 30.3175680000000014  4.2488086000000020
  1.4484889999999999 28.8964319999999937 10.8198086000000000
  8.5965109999999996 38.7654319999999970  4.2488086000000020
 18.6415109999999977 38.7654319999999970  2.3221913999999995
 11.4934890000000003 28.8964319999999937  8.8931913999999992
 18.6415109999999977 30.3175680000000014  2.3221913999999995
 11.4934890000000003 20.4485679999999945  8.8931913999999992
  4.0863059999999995 21.0940005999999975  9.4582973999999993
  5.9586940000000004 30.9630005999999973  2.8872974000000000
  4.0863059999999995 28.2509993999999942  9.4582973999999993
  5.9586940000000004 38.1199993999999975  2.8872974000000000
 16.0036939999999994 38.1199993999999975  3.6837025999999997
 14.1313060000000004 28.2509993999999942 10.2547025999999999
 16.0036939999999994 30.9630005999999973  3.6837025999999997
  8.4277549999999994 36.0692211999999941  8.9431309999999993
  1.6172450000000003 26.2002211999999979  2.3721309999999982
  8.4277549999999994 33.0137787999999972  8.9431309999999993
  1.6172450000000003 23.1447787999999974  2.3721309999999982
 11.6622450000000004 23.1447787999999974  4.1988690000000002
 18.4727549999999994 33.0137787999999972 10.7698689999999999
 11.6622450000000004 26.2002211999999979  4.1988690000000002
 18.4727549999999994 36.0692211999999941 10.7698689999999999
  6.3323679999999998 37.0383569999999906 10.9880261999999984
  3.7126320000000002 27.1693570000000015  4.4170262000000005
  6.3323679999999998 32.0446430000000007 10.9880261999999984
  3.7126320000000002 22.1756429999999973  4.4170262000000005
 16.3773679999999970 32.0446430000000007  8.7249738000000008
 13.7576320000000010 27.1693570000000015  2.1539738000000006
 16.3773679999999970 37.0383569999999906  8.7249738000000008
  5.4905969999999993 36.0771163999999942  0.5283084000000000
  4.5544030000000006 26.2081163999999980  7.0993084000000000
  5.4905969999999993 33.0058835999999900  0.5283084000000000
  4.5544030000000006 23.1368835999999973  7.0993084000000000
 15.5355969999999992 33.0058835999999900  6.0426915999999995
 14.5994030000000006 26.2081163999999980 12.6136915999999992
 15.5355969999999992 36.0771163999999942  6.0426915999999995
  2.3806650000000000 36.0790901999999889  0.2404986000000000
  7.6643350000000003 26.2100901999999962  6.8114985999999993
  2.3806650000000000 33.0039098000000024  0.2404986000000000
  7.6643350000000003 23.1349097999999991  6.8114985999999993
 12.4256650000000004 33.0039098000000024  6.3305014000000002
 12.4256650000000004 36.0790901999999889  6.3305014000000002
  1.3199129999999999 37.0955972000000003 10.6279353999999984
  8.7250870000000003 27.2265971999999969  4.0569353999999995
  1.3199129999999999 31.9874027999999946 10.6279353999999984
  8.7250870000000003 22.1184028000000019  4.0569353999999995
 11.3649129999999996 31.9874027999999946  9.0850646000000008
 18.7700870000000002 27.2265971999999969  2.5140646000000015
 11.3649129999999996 37.0955972000000003  9.0850646000000008
  3.9115230000000003 36.0968543999999909  9.3203063999999998
  6.1334770000000001 26.2278543999999947  2.7493064000000005
  3.9115230000000003 32.9861456000000004  9.3203063999999998
  6.1334770000000001 23.1171456000000006  2.7493064000000005
 13.9565229999999989 32.9861456000000004 10.3926935999999994
 16.1784770000000009 26.2278543999999947  3.8216935999999992
 13.9565229999999989 36.0968543999999909 10.3926935999999994
  8.4659259999999996 21.1413717999999982 22.2073515999999991
  1.5790740000000001 31.0103717999999944 15.6363515999999994
  8.4659259999999996 28.2036281999999972 22.2073515999999991
  1.5790740000000001 38.0726281999999969 15.6363515999999994
 11.6240740000000002 38.0726281999999969 17.2186483999999993
 18.5109260000000013 28.2036281999999972 23.7896483999999973
 11.6240740000000002 31.0103717999999944 17.2186483999999993
  6.5473310000000007 20.4011968000000010 24.3126999999999995
  3.4976689999999997 30.2701968000000008 17.7417000000000016
  6.5473310000000007 28.9438031999999978 24.3126999999999995
  3.4976689999999997 38.8128032000000047 17.7417000000000016
 13.5426689999999983 38.8128032000000047 15.1132999999999988
 16.5923310000000015 28.9438031999999978 21.6843000000000004
 13.5426689999999983 30.2701968000000008 15.1132999999999988
  5.6091280000000001 20.7959567999999955 14.0028010000000016
  4.4358719999999998 30.6649567999999952 20.5738009999999996
  5.6091280000000001 28.5490431999999963 14.0028010000000016
  4.4358719999999998 38.4180431999999996 20.5738009999999996
 14.4808719999999997 38.4180431999999996 25.4231989999999968
 15.6541280000000000 28.5490431999999963 18.8521989999999988
 14.4808719999999997 30.6649567999999952 25.4231989999999968
  2.5032139999999998 20.7525331999999985 13.7741302000000001
  7.5417860000000001 30.6215332000000018 20.3451301999999998
  2.5032139999999998 28.5924667999999969 13.7741302000000001
  7.5417860000000001 38.4614667999999895 20.3451301999999998
 17.5867860000000000 38.4614667999999895 25.6518698000000001
 12.5482140000000015 28.5924667999999969 19.0808697999999985
 17.5867860000000000 30.6215332000000018 25.6518698000000001
 12.5482140000000015 20.7525331999999985 19.0808697999999985
  1.4484889999999999 20.4485679999999945 23.9618085999999977
  8.5965109999999996 30.3175680000000014 17.3908085999999997
  1.4484889999999999 28.8964319999999937 23.9618085999999977
  8.5965109999999996 38.7654319999999970 17.3908085999999997
 18.6415109999999977 38.7654319999999970 15.4641914000000007
 11.4934890000000003 28.8964319999999937 22.0351913999999987
 18.6415109999999977 30.3175680000000014 15.4641914000000007
 11.4934890000000003 20.4485679999999945 22.0351913999999987
  4.0863059999999995 21.0940005999999975 22.6002973999999988
  5.9586940000000004 30.9630005999999973 16.0292974000000008
  4.0863059999999995 28.2509993999999942 22.6002973999999988
  5.9586940000000004 38.1199993999999975 16.0292974000000008
 16.0036939999999994 38.1199993999999975 16.8257025999999996
 14.1313060000000004 28.2509993999999942 23.3967025999999976
 16.0036939999999994 30.9630005999999973 16.8257025999999996
  8.4277549999999994 36.0692211999999941 22.0851309999999970
  1.6172450000000003 26.2002211999999979 15.5141309999999972
  8.4277549999999994 33.0137787999999972 22.0851309999999970
  1.6172450000000003 23.1447787999999974 15.5141309999999972
 11.6622450000000004 23.1447787999999974 17.3408689999999979
 18.4727549999999994 33.0137787999999972 23.9118689999999994
 11.6622450000000004 26.2002211999999979 17.3408689999999979
 18.4727549999999994 36.0692211999999941 23.9118689999999994
  6.3323679999999998 37.0383569999999906 24.1300261999999961
  3.7126320000000002 27.1693570000000015 17.5590261999999981
  6.3323679999999998 32.0446430000000007 24.1300261999999961
  3.7126320000000002 22.1756429999999973 17.5590261999999981
 16.3773679999999970 32.0446430000000007 21.8669738000000002
 13.7576320000000010 27.1693570000000015 15.2959738000000023
 16.3773679999999970 37.0383569999999906 21.8669738000000002
  5.4905969999999993 36.0771163999999942 13.6703083999999997
  4.5544030000000006 26.2081163999999980 20.2413084000000012
  5.4905969999999993 33.0058835999999900 13.6703083999999997
  4.5544030000000006 23.1368835999999973 20.2413084000000012
 15.5355969999999992 33.0058835999999900 19.1846916000000007
 14.5994030000000006 26.2081163999999980 25.7556915999999987
 15.5355969999999992 36.0771163999999942 19.1846916000000007
  2.3806650000000000 36.0790901999999889 13.3824985999999999
  7.6643350000000003 26.2100901999999962 19.9534985999999996
  2.3806650000000000 33.0039098000000024 13.3824985999999999
  7.6643350000000003 23.1349097999999991 19.9534985999999996
 12.4256650000000004 33.0039098000000024 19.4725013999999987
 12.4256650000000004 36.0790901999999889 19.4725013999999987
  1.3199129999999999 37.0955972000000003 23.7699353999999978
  8.7250870000000003 27.2265971999999969 17.1989353999999999
  1.3199129999999999 31.9874027999999946 23.7699353999999978
  8.7250870000000003 22.1184028000000019 17.1989353999999999
 11.3649129999999996 31.9874027999999946 22.2270645999999985
 18.7700870000000002 27.2265971999999969 15.6560646000000006
 11.3649129999999996 37.0955972000000003 22.2270645999999985
  3.9115230000000003 36.0968543999999909 22.4623063999999992
  6.1334770000000001 26.2278543999999947 15.8913063999999995
  3.9115230000000003 32.9861456000000004 22.4623063999999992
  6.1334770000000001 23.1171456000000006 15.8913063999999995
 13.9565229999999989 32.9861456000000004 23.5346935999999971
 16.1784770000000009 26.2278543999999947 16.9636935999999992
 13.9565229999999989 36.0968543999999909 23.5346935999999971
 28.5559259999999995  1.4033717999999999  9.0653515999999996
 21.6690739999999984 11.2723717999999984  2.4943515999999994
 28.5559259999999995  8.4656281999999994  9.0653515999999996
 31.7140740000000001 18.3346282000000009  4.0766483999999998
 38.6009260000000012  8.4656281999999994 10.6476483999999996
 31.7140740000000001 11.2723717999999984  4.0766483999999998
 38.6009260000000012  1.4033717999999999 10.6476483999999996
 26.6373309999999996  0.6631967999999999 11.1707000000000001
 23.5876689999999982 10.5321967999999995  4.5997000000000012
 26.6373309999999996  9.2058032000000001 11.1707000000000001
 33.6326689999999999 19.0748032000000016  1.9712999999999987
 36.6823310000000049  9.2058032000000001  8.5422999999999991
 33.6326689999999999 10.5321967999999995  1.9712999999999987
 36.6823310000000049  0.6631967999999999  8.5422999999999991
 25.6991280000000017  1.0579567999999999  0.8608010000000000
 24.5258720000000032 10.9269567999999992  7.4318010000000001
 25.6991280000000017  8.8110432000000003  0.8608010000000000